NAME: X303-FSMFD
COMMENT: Generated by Uchoa, Pecin, Pessoa, Poggi, Subramanian, and Vidal (2013). Modified by Sadykov, Pessoa and Uchoa (2017). Converted to PyVRP's VRPLIB dialect.
TYPE: HFVRP
DIMENSION: 303
VEHICLES: 906
EDGE_WEIGHT_TYPE: EUC_2D
NODE_COORD_SECTION
1	500	500
2	205	638
3	893	161
4	191	775
5	444	871
6	225	445
7	368	543
8	120	270
9	612	902
10	45	323
11	707	182
12	125	720
13	442	388
14	79	759
15	904	76
16	379	849
17	213	595
18	164	686
19	404	947
20	331	615
21	842	156
22	272	297
23	957	227
24	274	481
25	287	544
26	152	403
27	873	146
28	267	415
29	188	727
30	594	742
31	198	429
32	810	797
33	383	602
34	459	786
35	50	183
36	395	836
37	600	866
38	192	744
39	12	705
40	869	99
41	233	811
42	235	638
43	423	904
44	220	619
45	236	713
46	960	141
47	128	321
48	160	230
49	200	650
50	104	544
51	375	638
52	540	726
53	635	790
54	512	597
55	643	517
56	327	750
57	198	412
58	375	558
59	123	259
60	365	859
61	545	700
62	242	431
63	140	412
64	316	413
65	145	764
66	892	246
67	331	828
68	231	342
69	676	810
70	211	378
71	197	538
72	808	113
73	129	655
74	84	714
75	416	784
76	151	243
77	275	442
78	46	355
79	182	746
80	158	717
81	198	648
82	137	763
83	206	872
84	30	301
85	979	214
86	384	855
87	212	794
88	35	779
89	108	640
90	186	930
91	623	977
92	231	796
93	402	932
94	166	237
95	341	803
96	559	851
97	883	143
98	524	909
99	387	463
100	395	327
101	382	787
102	341	784
103	180	530
104	81	261
105	379	700
106	721	333
107	312	756
108	424	573
109	596	878
110	273	514
111	281	417
112	125	528
113	464	893
114	140	413
115	256	250
116	206	384
117	204	563
118	202	159
119	347	420
120	283	520
121	214	494
122	854	142
123	502	839
124	599	889
125	485	898
126	339	73
127	396	959
128	192	533
129	234	702
130	811	101
131	840	272
132	266	346
133	867	211
134	185	436
135	61	374
136	843	188
137	156	795
138	387	889
139	724	952
140	622	16
141	235	894
142	327	991
143	867	172
144	329	496
145	930	115
146	728	950
147	371	317
148	416	575
149	408	744
150	98	434
151	468	990
152	239	775
153	231	748
154	251	398
155	311	725
156	913	135
157	928	399
158	444	596
159	337	519
160	294	981
161	625	824
162	153	530
163	124	342
164	615	881
165	534	826
166	454	888
167	639	789
168	48	353
169	200	704
170	50	483
171	269	610
172	477	953
173	54	300
174	346	588
175	617	832
176	867	63
177	304	240
178	129	675
179	293	547
180	110	597
181	868	126
182	190	760
183	894	162
184	209	696
185	400	495
186	283	657
187	536	991
188	649	872
189	198	370
190	824	202
191	275	889
192	904	169
193	511	600
194	224	441
195	674	949
196	627	952
197	7	213
198	155	218
199	593	802
200	817	211
201	212	351
202	843	191
203	616	902
204	230	561
205	459	554
206	585	595
207	204	614
208	698	970
209	425	539
210	430	850
211	498	758
212	437	622
213	107	483
214	119	764
215	265	615
216	547	481
217	324	762
218	723	745
219	163	928
220	308	513
221	339	599
222	314	814
223	316	598
224	183	159
225	325	348
226	163	480
227	595	727
228	303	866
229	350	700
230	920	82
231	105	238
232	111	18
233	437	482
234	88	300
235	464	929
236	544	846
237	201	233
238	353	729
239	302	404
240	708	855
241	739	843
242	198	250
243	55	143
244	257	410
245	26	411
246	832	234
247	207	344
248	212	757
249	277	453
250	274	472
251	272	828
252	875	101
253	434	975
254	510	975
255	709	932
256	647	943
257	349	428
258	317	866
259	391	393
260	612	815
261	217	666
262	229	740
263	630	918
264	125	704
265	545	898
266	184	757
267	492	930
268	985	201
269	448	998
270	117	784
271	359	490
272	292	715
273	365	531
274	503	795
275	21	220
276	225	872
277	387	551
278	895	120
279	476	868
280	281	586
281	609	944
282	868	164
283	148	748
284	168	463
285	364	550
286	844	163
287	465	614
288	214	637
289	189	582
290	94	186
291	863	190
292	676	800
293	175	686
294	393	400
295	172	614
296	320	504
297	35	206
298	182	671
299	356	599
300	88	215
301	608	775
302	481	721
303	449	751
DEMAND_SECTION
1	0
2	20
3	14
4	85
5	33
6	51
7	78
8	51
9	85
10	74
11	4
12	13
13	2
14	33
15	16
16	31
17	16
18	18
19	3
20	66
21	42
22	65
23	15
24	3
25	38
26	81
27	82
28	83
29	86
30	1
31	59
32	69
33	1
34	58
35	98
36	37
37	65
38	92
39	44
40	86
41	83
42	68
43	52
44	82
45	66
46	34
47	33
48	18
49	39
50	97
51	29
52	6
53	74
54	20
55	2
56	89
57	48
58	53
59	57
60	80
61	26
62	85
63	89
64	29
65	68
66	15
67	51
68	9
69	63
70	62
71	49
72	28
73	84
74	82
75	65
76	77
77	74
78	27
79	100
80	82
81	54
82	21
83	43
84	4
85	53
86	55
87	73
88	46
89	68
90	22
91	69
92	93
93	44
94	63
95	64
96	81
97	87
98	44
99	12
100	78
101	91
102	63
103	84
104	7
105	2
106	68
107	85
108	77
109	93
110	16
111	6
112	52
113	79
114	43
115	87
116	40
117	47
118	74
119	19
120	3
121	12
122	40
123	57
124	100
125	4
126	37
127	74
128	51
129	71
130	99
131	23
132	24
133	16
134	100
135	39
136	49
137	52
138	81
139	52
140	60
141	87
142	2
143	42
144	56
145	28
146	17
147	1
148	91
149	20
150	79
151	30
152	88
153	98
154	60
155	63
156	79
157	73
158	11
159	10
160	70
161	39
162	31
163	25
164	24
165	4
166	74
167	4
168	84
169	52
170	72
171	8
172	5
173	22
174	89
175	100
176	21
177	17
178	96
179	25
180	35
181	38
182	73
183	98
184	29
185	40
186	36
187	28
188	9
189	16
190	88
191	62
192	64
193	4
194	95
195	57
196	57
197	19
198	90
199	72
200	39
201	16
202	96
203	92
204	89
205	64
206	81
207	70
208	76
209	62
210	33
211	100
212	50
213	67
214	61
215	13
216	55
217	55
218	21
219	91
220	67
221	99
222	71
223	22
224	62
225	82
226	43
227	61
228	99
229	28
230	50
231	32
232	42
233	59
234	5
235	45
236	90
237	78
238	81
239	42
240	49
241	78
242	81
243	68
244	15
245	73
246	44
247	65
248	92
249	57
250	67
251	94
252	31
253	87
254	63
255	79
256	91
257	90
258	29
259	77
260	31
261	97
262	57
263	74
264	22
265	99
266	52
267	7
268	87
269	31
270	91
271	7
272	68
273	81
274	93
275	67
276	7
277	20
278	26
279	45
280	71
281	62
282	29
283	77
284	81
285	45
286	67
287	24
288	81
289	42
290	6
291	45
292	29
293	90
294	15
295	90
296	6
297	49
298	91
299	20
300	58
301	87
302	15
303	55
CAPACITY_SECTION
1	540
2	540
3	540
4	540
5	540
6	540
7	540
8	540
9	540
10	540
11	540
12	540
13	540
14	540
15	540
16	540
17	540
18	540
19	540
20	540
21	540
22	540
23	540
24	540
25	540
26	540
27	540
28	540
29	540
30	540
31	540
32	540
33	540
34	540
35	540
36	540
37	540
38	540
39	540
40	540
41	540
42	540
43	540
44	540
45	540
46	540
47	540
48	540
49	540
50	540
51	540
52	540
53	540
54	540
55	540
56	540
57	540
58	540
59	540
60	540
61	540
62	540
63	540
64	540
65	540
66	540
67	540
68	540
69	540
70	540
71	540
72	540
73	540
74	540
75	540
76	540
77	540
78	540
79	540
80	540
81	540
82	540
83	540
84	540
85	540
86	540
87	540
88	540
89	540
90	540
91	540
92	540
93	540
94	540
95	540
96	540
97	540
98	540
99	540
100	540
101	540
102	540
103	540
104	540
105	540
106	540
107	540
108	540
109	540
110	540
111	540
112	540
113	540
114	540
115	540
116	540
117	540
118	540
119	540
120	540
121	540
122	540
123	540
124	540
125	540
126	540
127	540
128	540
129	540
130	540
131	540
132	540
133	540
134	540
135	540
136	540
137	540
138	540
139	540
140	540
141	540
142	540
143	540
144	540
145	540
146	540
147	540
148	540
149	540
150	540
151	540
152	540
153	540
154	540
155	540
156	540
157	540
158	540
159	540
160	540
161	540
162	540
163	540
164	540
165	540
166	540
167	540
168	540
169	540
170	540
171	540
172	540
173	540
174	540
175	540
176	540
177	540
178	540
179	540
180	540
181	540
182	540
183	540
184	540
185	540
186	540
187	540
188	540
189	540
190	540
191	540
192	540
193	540
194	540
195	540
196	540
197	540
198	540
199	540
200	540
201	540
202	540
203	540
204	540
205	540
206	540
207	540
208	540
209	540
210	540
211	540
212	540
213	540
214	540
215	540
216	540
217	540
218	540
219	540
220	540
221	540
222	540
223	540
224	540
225	540
226	540
227	540
228	540
229	540
230	540
231	540
232	540
233	540
234	540
235	540
236	540
237	540
238	540
239	540
240	540
241	540
242	540
243	540
244	540
245	540
246	540
247	540
248	540
249	540
250	540
251	540
252	540
253	540
254	540
255	540
256	540
257	540
258	540
259	540
260	540
261	540
262	540
263	540
264	540
265	540
266	540
267	540
268	540
269	540
270	540
271	540
272	540
273	540
274	540
275	540
276	540
277	540
278	540
279	540
280	540
281	540
282	540
283	540
284	540
285	540
286	540
287	540
288	540
289	540
290	540
291	540
292	540
293	540
294	540
295	540
296	540
297	540
298	540
299	540
300	540
301	540
302	540
303	763
304	763
305	763
306	763
307	763
308	763
309	763
310	763
311	763
312	763
313	763
314	763
315	763
316	763
317	763
318	763
319	763
320	763
321	763
322	763
323	763
324	763
325	763
326	763
327	763
328	763
329	763
330	763
331	763
332	763
333	763
334	763
335	763
336	763
337	763
338	763
339	763
340	763
341	763
342	763
343	763
344	763
345	763
346	763
347	763
348	763
349	763
350	763
351	763
352	763
353	763
354	763
355	763
356	763
357	763
358	763
359	763
360	763
361	763
362	763
363	763
364	763
365	763
366	763
367	763
368	763
369	763
370	763
371	763
372	763
373	763
374	763
375	763
376	763
377	763
378	763
379	763
380	763
381	763
382	763
383	763
384	763
385	763
386	763
387	763
388	763
389	763
390	763
391	763
392	763
393	763
394	763
395	763
396	763
397	763
398	763
399	763
400	763
401	763
402	763
403	763
404	763
405	763
406	763
407	763
408	763
409	763
410	763
411	763
412	763
413	763
414	763
415	763
416	763
417	763
418	763
419	763
420	763
421	763
422	763
423	763
424	763
425	763
426	763
427	763
428	763
429	763
430	763
431	763
432	763
433	763
434	763
435	763
436	763
437	763
438	763
439	763
440	763
441	763
442	763
443	763
444	763
445	763
446	763
447	763
448	763
449	763
450	763
451	763
452	763
453	763
454	763
455	763
456	763
457	763
458	763
459	763
460	763
461	763
462	763
463	763
464	763
465	763
466	763
467	763
468	763
469	763
470	763
471	763
472	763
473	763
474	763
475	763
476	763
477	763
478	763
479	763
480	763
481	763
482	763
483	763
484	763
485	763
486	763
487	763
488	763
489	763
490	763
491	763
492	763
493	763
494	763
495	763
496	763
497	763
498	763
499	763
500	763
501	763
502	763
503	763
504	763
505	763
506	763
507	763
508	763
509	763
510	763
511	763
512	763
513	763
514	763
515	763
516	763
517	763
518	763
519	763
520	763
521	763
522	763
523	763
524	763
525	763
526	763
527	763
528	763
529	763
530	763
531	763
532	763
533	763
534	763
535	763
536	763
537	763
538	763
539	763
540	763
541	763
542	763
543	763
544	763
545	763
546	763
547	763
548	763
549	763
550	763
551	763
552	763
553	763
554	763
555	763
556	763
557	763
558	763
559	763
560	763
561	763
562	763
563	763
564	763
565	763
566	763
567	763
568	763
569	763
570	763
571	763
572	763
573	763
574	763
575	763
576	763
577	763
578	763
579	763
580	763
581	763
582	763
583	763
584	763
585	763
586	763
587	763
588	763
589	763
590	763
591	763
592	763
593	763
594	763
595	763
596	763
597	763
598	763
599	763
600	763
601	763
602	763
603	763
604	763
605	1079
606	1079
607	1079
608	1079
609	1079
610	1079
611	1079
612	1079
613	1079
614	1079
615	1079
616	1079
617	1079
618	1079
619	1079
620	1079
621	1079
622	1079
623	1079
624	1079
625	1079
626	1079
627	1079
628	1079
629	1079
630	1079
631	1079
632	1079
633	1079
634	1079
635	1079
636	1079
637	1079
638	1079
639	1079
640	1079
641	1079
642	1079
643	1079
644	1079
645	1079
646	1079
647	1079
648	1079
649	1079
650	1079
651	1079
652	1079
653	1079
654	1079
655	1079
656	1079
657	1079
658	1079
659	1079
660	1079
661	1079
662	1079
663	1079
664	1079
665	1079
666	1079
667	1079
668	1079
669	1079
670	1079
671	1079
672	1079
673	1079
674	1079
675	1079
676	1079
677	1079
678	1079
679	1079
680	1079
681	1079
682	1079
683	1079
684	1079
685	1079
686	1079
687	1079
688	1079
689	1079
690	1079
691	1079
692	1079
693	1079
694	1079
695	1079
696	1079
697	1079
698	1079
699	1079
700	1079
701	1079
702	1079
703	1079
704	1079
705	1079
706	1079
707	1079
708	1079
709	1079
710	1079
711	1079
712	1079
713	1079
714	1079
715	1079
716	1079
717	1079
718	1079
719	1079
720	1079
721	1079
722	1079
723	1079
724	1079
725	1079
726	1079
727	1079
728	1079
729	1079
730	1079
731	1079
732	1079
733	1079
734	1079
735	1079
736	1079
737	1079
738	1079
739	1079
740	1079
741	1079
742	1079
743	1079
744	1079
745	1079
746	1079
747	1079
748	1079
749	1079
750	1079
751	1079
752	1079
753	1079
754	1079
755	1079
756	1079
757	1079
758	1079
759	1079
760	1079
761	1079
762	1079
763	1079
764	1079
765	1079
766	1079
767	1079
768	1079
769	1079
770	1079
771	1079
772	1079
773	1079
774	1079
775	1079
776	1079
777	1079
778	1079
779	1079
780	1079
781	1079
782	1079
783	1079
784	1079
785	1079
786	1079
787	1079
788	1079
789	1079
790	1079
791	1079
792	1079
793	1079
794	1079
795	1079
796	1079
797	1079
798	1079
799	1079
800	1079
801	1079
802	1079
803	1079
804	1079
805	1079
806	1079
807	1079
808	1079
809	1079
810	1079
811	1079
812	1079
813	1079
814	1079
815	1079
816	1079
817	1079
818	1079
819	1079
820	1079
821	1079
822	1079
823	1079
824	1079
825	1079
826	1079
827	1079
828	1079
829	1079
830	1079
831	1079
832	1079
833	1079
834	1079
835	1079
836	1079
837	1079
838	1079
839	1079
840	1079
841	1079
842	1079
843	1079
844	1079
845	1079
846	1079
847	1079
848	1079
849	1079
850	1079
851	1079
852	1079
853	1079
854	1079
855	1079
856	1079
857	1079
858	1079
859	1079
860	1079
861	1079
862	1079
863	1079
864	1079
865	1079
866	1079
867	1079
868	1079
869	1079
870	1079
871	1079
872	1079
873	1079
874	1079
875	1079
876	1079
877	1079
878	1079
879	1079
880	1079
881	1079
882	1079
883	1079
884	1079
885	1079
886	1079
887	1079
888	1079
889	1079
890	1079
891	1079
892	1079
893	1079
894	1079
895	1079
896	1079
897	1079
898	1079
899	1079
900	1079
901	1079
902	1079
903	1079
904	1079
905	1079
906	1079
VEHICLES_FIXED_COST_SECTION
1	46200
2	46200
3	46200
4	46200
5	46200
6	46200
7	46200
8	46200
9	46200
10	46200
11	46200
12	46200
13	46200
14	46200
15	46200
16	46200
17	46200
18	46200
19	46200
20	46200
21	46200
22	46200
23	46200
24	46200
25	46200
26	46200
27	46200
28	46200
29	46200
30	46200
31	46200
32	46200
33	46200
34	46200
35	46200
36	46200
37	46200
38	46200
39	46200
40	46200
41	46200
42	46200
43	46200
44	46200
45	46200
46	46200
47	46200
48	46200
49	46200
50	46200
51	46200
52	46200
53	46200
54	46200
55	46200
56	46200
57	46200
58	46200
59	46200
60	46200
61	46200
62	46200
63	46200
64	46200
65	46200
66	46200
67	46200
68	46200
69	46200
70	46200
71	46200
72	46200
73	46200
74	46200
75	46200
76	46200
77	46200
78	46200
79	46200
80	46200
81	46200
82	46200
83	46200
84	46200
85	46200
86	46200
87	46200
88	46200
89	46200
90	46200
91	46200
92	46200
93	46200
94	46200
95	46200
96	46200
97	46200
98	46200
99	46200
100	46200
101	46200
102	46200
103	46200
104	46200
105	46200
106	46200
107	46200
108	46200
109	46200
110	46200
111	46200
112	46200
113	46200
114	46200
115	46200
116	46200
117	46200
118	46200
119	46200
120	46200
121	46200
122	46200
123	46200
124	46200
125	46200
126	46200
127	46200
128	46200
129	46200
130	46200
131	46200
132	46200
133	46200
134	46200
135	46200
136	46200
137	46200
138	46200
139	46200
140	46200
141	46200
142	46200
143	46200
144	46200
145	46200
146	46200
147	46200
148	46200
149	46200
150	46200
151	46200
152	46200
153	46200
154	46200
155	46200
156	46200
157	46200
158	46200
159	46200
160	46200
161	46200
162	46200
163	46200
164	46200
165	46200
166	46200
167	46200
168	46200
169	46200
170	46200
171	46200
172	46200
173	46200
174	46200
175	46200
176	46200
177	46200
178	46200
179	46200
180	46200
181	46200
182	46200
183	46200
184	46200
185	46200
186	46200
187	46200
188	46200
189	46200
190	46200
191	46200
192	46200
193	46200
194	46200
195	46200
196	46200
197	46200
198	46200
199	46200
200	46200
201	46200
202	46200
203	46200
204	46200
205	46200
206	46200
207	46200
208	46200
209	46200
210	46200
211	46200
212	46200
213	46200
214	46200
215	46200
216	46200
217	46200
218	46200
219	46200
220	46200
221	46200
222	46200
223	46200
224	46200
225	46200
226	46200
227	46200
228	46200
229	46200
230	46200
231	46200
232	46200
233	46200
234	46200
235	46200
236	46200
237	46200
238	46200
239	46200
240	46200
241	46200
242	46200
243	46200
244	46200
245	46200
246	46200
247	46200
248	46200
249	46200
250	46200
251	46200
252	46200
253	46200
254	46200
255	46200
256	46200
257	46200
258	46200
259	46200
260	46200
261	46200
262	46200
263	46200
264	46200
265	46200
266	46200
267	46200
268	46200
269	46200
270	46200
271	46200
272	46200
273	46200
274	46200
275	46200
276	46200
277	46200
278	46200
279	46200
280	46200
281	46200
282	46200
283	46200
284	46200
285	46200
286	46200
287	46200
288	46200
289	46200
290	46200
291	46200
292	46200
293	46200
294	46200
295	46200
296	46200
297	46200
298	46200
299	46200
300	46200
301	46200
302	46200
303	70800
304	70800
305	70800
306	70800
307	70800
308	70800
309	70800
310	70800
311	70800
312	70800
313	70800
314	70800
315	70800
316	70800
317	70800
318	70800
319	70800
320	70800
321	70800
322	70800
323	70800
324	70800
325	70800
326	70800
327	70800
328	70800
329	70800
330	70800
331	70800
332	70800
333	70800
334	70800
335	70800
336	70800
337	70800
338	70800
339	70800
340	70800
341	70800
342	70800
343	70800
344	70800
345	70800
346	70800
347	70800
348	70800
349	70800
350	70800
351	70800
352	70800
353	70800
354	70800
355	70800
356	70800
357	70800
358	70800
359	70800
360	70800
361	70800
362	70800
363	70800
364	70800
365	70800
366	70800
367	70800
368	70800
369	70800
370	70800
371	70800
372	70800
373	70800
374	70800
375	70800
376	70800
377	70800
378	70800
379	70800
380	70800
381	70800
382	70800
383	70800
384	70800
385	70800
386	70800
387	70800
388	70800
389	70800
390	70800
391	70800
392	70800
393	70800
394	70800
395	70800
396	70800
397	70800
398	70800
399	70800
400	70800
401	70800
402	70800
403	70800
404	70800
405	70800
406	70800
407	70800
408	70800
409	70800
410	70800
411	70800
412	70800
413	70800
414	70800
415	70800
416	70800
417	70800
418	70800
419	70800
420	70800
421	70800
422	70800
423	70800
424	70800
425	70800
426	70800
427	70800
428	70800
429	70800
430	70800
431	70800
432	70800
433	70800
434	70800
435	70800
436	70800
437	70800
438	70800
439	70800
440	70800
441	70800
442	70800
443	70800
444	70800
445	70800
446	70800
447	70800
448	70800
449	70800
450	70800
451	70800
452	70800
453	70800
454	70800
455	70800
456	70800
457	70800
458	70800
459	70800
460	70800
461	70800
462	70800
463	70800
464	70800
465	70800
466	70800
467	70800
468	70800
469	70800
470	70800
471	70800
472	70800
473	70800
474	70800
475	70800
476	70800
477	70800
478	70800
479	70800
480	70800
481	70800
482	70800
483	70800
484	70800
485	70800
486	70800
487	70800
488	70800
489	70800
490	70800
491	70800
492	70800
493	70800
494	70800
495	70800
496	70800
497	70800
498	70800
499	70800
500	70800
501	70800
502	70800
503	70800
504	70800
505	70800
506	70800
507	70800
508	70800
509	70800
510	70800
511	70800
512	70800
513	70800
514	70800
515	70800
516	70800
517	70800
518	70800
519	70800
520	70800
521	70800
522	70800
523	70800
524	70800
525	70800
526	70800
527	70800
528	70800
529	70800
530	70800
531	70800
532	70800
533	70800
534	70800
535	70800
536	70800
537	70800
538	70800
539	70800
540	70800
541	70800
542	70800
543	70800
544	70800
545	70800
546	70800
547	70800
548	70800
549	70800
550	70800
551	70800
552	70800
553	70800
554	70800
555	70800
556	70800
557	70800
558	70800
559	70800
560	70800
561	70800
562	70800
563	70800
564	70800
565	70800
566	70800
567	70800
568	70800
569	70800
570	70800
571	70800
572	70800
573	70800
574	70800
575	70800
576	70800
577	70800
578	70800
579	70800
580	70800
581	70800
582	70800
583	70800
584	70800
585	70800
586	70800
587	70800
588	70800
589	70800
590	70800
591	70800
592	70800
593	70800
594	70800
595	70800
596	70800
597	70800
598	70800
599	70800
600	70800
601	70800
602	70800
603	70800
604	70800
605	107800
606	107800
607	107800
608	107800
609	107800
610	107800
611	107800
612	107800
613	107800
614	107800
615	107800
616	107800
617	107800
618	107800
619	107800
620	107800
621	107800
622	107800
623	107800
624	107800
625	107800
626	107800
627	107800
628	107800
629	107800
630	107800
631	107800
632	107800
633	107800
634	107800
635	107800
636	107800
637	107800
638	107800
639	107800
640	107800
641	107800
642	107800
643	107800
644	107800
645	107800
646	107800
647	107800
648	107800
649	107800
650	107800
651	107800
652	107800
653	107800
654	107800
655	107800
656	107800
657	107800
658	107800
659	107800
660	107800
661	107800
662	107800
663	107800
664	107800
665	107800
666	107800
667	107800
668	107800
669	107800
670	107800
671	107800
672	107800
673	107800
674	107800
675	107800
676	107800
677	107800
678	107800
679	107800
680	107800
681	107800
682	107800
683	107800
684	107800
685	107800
686	107800
687	107800
688	107800
689	107800
690	107800
691	107800
692	107800
693	107800
694	107800
695	107800
696	107800
697	107800
698	107800
699	107800
700	107800
701	107800
702	107800
703	107800
704	107800
705	107800
706	107800
707	107800
708	107800
709	107800
710	107800
711	107800
712	107800
713	107800
714	107800
715	107800
716	107800
717	107800
718	107800
719	107800
720	107800
721	107800
722	107800
723	107800
724	107800
725	107800
726	107800
727	107800
728	107800
729	107800
730	107800
731	107800
732	107800
733	107800
734	107800
735	107800
736	107800
737	107800
738	107800
739	107800
740	107800
741	107800
742	107800
743	107800
744	107800
745	107800
746	107800
747	107800
748	107800
749	107800
750	107800
751	107800
752	107800
753	107800
754	107800
755	107800
756	107800
757	107800
758	107800
759	107800
760	107800
761	107800
762	107800
763	107800
764	107800
765	107800
766	107800
767	107800
768	107800
769	107800
770	107800
771	107800
772	107800
773	107800
774	107800
775	107800
776	107800
777	107800
778	107800
779	107800
780	107800
781	107800
782	107800
783	107800
784	107800
785	107800
786	107800
787	107800
788	107800
789	107800
790	107800
791	107800
792	107800
793	107800
794	107800
795	107800
796	107800
797	107800
798	107800
799	107800
800	107800
801	107800
802	107800
803	107800
804	107800
805	107800
806	107800
807	107800
808	107800
809	107800
810	107800
811	107800
812	107800
813	107800
814	107800
815	107800
816	107800
817	107800
818	107800
819	107800
820	107800
821	107800
822	107800
823	107800
824	107800
825	107800
826	107800
827	107800
828	107800
829	107800
830	107800
831	107800
832	107800
833	107800
834	107800
835	107800
836	107800
837	107800
838	107800
839	107800
840	107800
841	107800
842	107800
843	107800
844	107800
845	107800
846	107800
847	107800
848	107800
849	107800
850	107800
851	107800
852	107800
853	107800
854	107800
855	107800
856	107800
857	107800
858	107800
859	107800
860	107800
861	107800
862	107800
863	107800
864	107800
865	107800
866	107800
867	107800
868	107800
869	107800
870	107800
871	107800
872	107800
873	107800
874	107800
875	107800
876	107800
877	107800
878	107800
879	107800
880	107800
881	107800
882	107800
883	107800
884	107800
885	107800
886	107800
887	107800
888	107800
889	107800
890	107800
891	107800
892	107800
893	107800
894	107800
895	107800
896	107800
897	107800
898	107800
899	107800
900	107800
901	107800
902	107800
903	107800
904	107800
905	107800
906	107800
VEHICLES_UNIT_DISTANCE_COST_SECTION
1	77
2	77
3	77
4	77
5	77
6	77
7	77
8	77
9	77
10	77
11	77
12	77
13	77
14	77
15	77
16	77
17	77
18	77
19	77
20	77
21	77
22	77
23	77
24	77
25	77
26	77
27	77
28	77
29	77
30	77
31	77
32	77
33	77
34	77
35	77
36	77
37	77
38	77
39	77
40	77
41	77
42	77
43	77
44	77
45	77
46	77
47	77
48	77
49	77
50	77
51	77
52	77
53	77
54	77
55	77
56	77
57	77
58	77
59	77
60	77
61	77
62	77
63	77
64	77
65	77
66	77
67	77
68	77
69	77
70	77
71	77
72	77
73	77
74	77
75	77
76	77
77	77
78	77
79	77
80	77
81	77
82	77
83	77
84	77
85	77
86	77
87	77
88	77
89	77
90	77
91	77
92	77
93	77
94	77
95	77
96	77
97	77
98	77
99	77
100	77
101	77
102	77
103	77
104	77
105	77
106	77
107	77
108	77
109	77
110	77
111	77
112	77
113	77
114	77
115	77
116	77
117	77
118	77
119	77
120	77
121	77
122	77
123	77
124	77
125	77
126	77
127	77
128	77
129	77
130	77
131	77
132	77
133	77
134	77
135	77
136	77
137	77
138	77
139	77
140	77
141	77
142	77
143	77
144	77
145	77
146	77
147	77
148	77
149	77
150	77
151	77
152	77
153	77
154	77
155	77
156	77
157	77
158	77
159	77
160	77
161	77
162	77
163	77
164	77
165	77
166	77
167	77
168	77
169	77
170	77
171	77
172	77
173	77
174	77
175	77
176	77
177	77
178	77
179	77
180	77
181	77
182	77
183	77
184	77
185	77
186	77
187	77
188	77
189	77
190	77
191	77
192	77
193	77
194	77
195	77
196	77
197	77
198	77
199	77
200	77
201	77
202	77
203	77
204	77
205	77
206	77
207	77
208	77
209	77
210	77
211	77
212	77
213	77
214	77
215	77
216	77
217	77
218	77
219	77
220	77
221	77
222	77
223	77
224	77
225	77
226	77
227	77
228	77
229	77
230	77
231	77
232	77
233	77
234	77
235	77
236	77
237	77
238	77
239	77
240	77
241	77
242	77
243	77
244	77
245	77
246	77
247	77
248	77
249	77
250	77
251	77
252	77
253	77
254	77
255	77
256	77
257	77
258	77
259	77
260	77
261	77
262	77
263	77
264	77
265	77
266	77
267	77
268	77
269	77
270	77
271	77
272	77
273	77
274	77
275	77
276	77
277	77
278	77
279	77
280	77
281	77
282	77
283	77
284	77
285	77
286	77
287	77
288	77
289	77
290	77
291	77
292	77
293	77
294	77
295	77
296	77
297	77
298	77
299	77
300	77
301	77
302	77
303	100
304	100
305	100
306	100
307	100
308	100
309	100
310	100
311	100
312	100
313	100
314	100
315	100
316	100
317	100
318	100
319	100
320	100
321	100
322	100
323	100
324	100
325	100
326	100
327	100
328	100
329	100
330	100
331	100
332	100
333	100
334	100
335	100
336	100
337	100
338	100
339	100
340	100
341	100
342	100
343	100
344	100
345	100
346	100
347	100
348	100
349	100
350	100
351	100
352	100
353	100
354	100
355	100
356	100
357	100
358	100
359	100
360	100
361	100
362	100
363	100
364	100
365	100
366	100
367	100
368	100
369	100
370	100
371	100
372	100
373	100
374	100
375	100
376	100
377	100
378	100
379	100
380	100
381	100
382	100
383	100
384	100
385	100
386	100
387	100
388	100
389	100
390	100
391	100
392	100
393	100
394	100
395	100
396	100
397	100
398	100
399	100
400	100
401	100
402	100
403	100
404	100
405	100
406	100
407	100
408	100
409	100
410	100
411	100
412	100
413	100
414	100
415	100
416	100
417	100
418	100
419	100
420	100
421	100
422	100
423	100
424	100
425	100
426	100
427	100
428	100
429	100
430	100
431	100
432	100
433	100
434	100
435	100
436	100
437	100
438	100
439	100
440	100
441	100
442	100
443	100
444	100
445	100
446	100
447	100
448	100
449	100
450	100
451	100
452	100
453	100
454	100
455	100
456	100
457	100
458	100
459	100
460	100
461	100
462	100
463	100
464	100
465	100
466	100
467	100
468	100
469	100
470	100
471	100
472	100
473	100
474	100
475	100
476	100
477	100
478	100
479	100
480	100
481	100
482	100
483	100
484	100
485	100
486	100
487	100
488	100
489	100
490	100
491	100
492	100
493	100
494	100
495	100
496	100
497	100
498	100
499	100
500	100
501	100
502	100
503	100
504	100
505	100
506	100
507	100
508	100
509	100
510	100
511	100
512	100
513	100
514	100
515	100
516	100
517	100
518	100
519	100
520	100
521	100
522	100
523	100
524	100
525	100
526	100
527	100
528	100
529	100
530	100
531	100
532	100
533	100
534	100
535	100
536	100
537	100
538	100
539	100
540	100
541	100
542	100
543	100
544	100
545	100
546	100
547	100
548	100
549	100
550	100
551	100
552	100
553	100
554	100
555	100
556	100
557	100
558	100
559	100
560	100
561	100
562	100
563	100
564	100
565	100
566	100
567	100
568	100
569	100
570	100
571	100
572	100
573	100
574	100
575	100
576	100
577	100
578	100
579	100
580	100
581	100
582	100
583	100
584	100
585	100
586	100
587	100
588	100
589	100
590	100
591	100
592	100
593	100
594	100
595	100
596	100
597	100
598	100
599	100
600	100
601	100
602	100
603	100
604	100
605	129
606	129
607	129
608	129
609	129
610	129
611	129
612	129
613	129
614	129
615	129
616	129
617	129
618	129
619	129
620	129
621	129
622	129
623	129
624	129
625	129
626	129
627	129
628	129
629	129
630	129
631	129
632	129
633	129
634	129
635	129
636	129
637	129
638	129
639	129
640	129
641	129
642	129
643	129
644	129
645	129
646	129
647	129
648	129
649	129
650	129
651	129
652	129
653	129
654	129
655	129
656	129
657	129
658	129
659	129
660	129
661	129
662	129
663	129
664	129
665	129
666	129
667	129
668	129
669	129
670	129
671	129
672	129
673	129
674	129
675	129
676	129
677	129
678	129
679	129
680	129
681	129
682	129
683	129
684	129
685	129
686	129
687	129
688	129
689	129
690	129
691	129
692	129
693	129
694	129
695	129
696	129
697	129
698	129
699	129
700	129
701	129
702	129
703	129
704	129
705	129
706	129
707	129
708	129
709	129
710	129
711	129
712	129
713	129
714	129
715	129
716	129
717	129
718	129
719	129
720	129
721	129
722	129
723	129
724	129
725	129
726	129
727	129
728	129
729	129
730	129
731	129
732	129
733	129
734	129
735	129
736	129
737	129
738	129
739	129
740	129
741	129
742	129
743	129
744	129
745	129
746	129
747	129
748	129
749	129
750	129
751	129
752	129
753	129
754	129
755	129
756	129
757	129
758	129
759	129
760	129
761	129
762	129
763	129
764	129
765	129
766	129
767	129
768	129
769	129
770	129
771	129
772	129
773	129
774	129
775	129
776	129
777	129
778	129
779	129
780	129
781	129
782	129
783	129
784	129
785	129
786	129
787	129
788	129
789	129
790	129
791	129
792	129
793	129
794	129
795	129
796	129
797	129
798	129
799	129
800	129
801	129
802	129
803	129
804	129
805	129
806	129
807	129
808	129
809	129
810	129
811	129
812	129
813	129
814	129
815	129
816	129
817	129
818	129
819	129
820	129
821	129
822	129
823	129
824	129
825	129
826	129
827	129
828	129
829	129
830	129
831	129
832	129
833	129
834	129
835	129
836	129
837	129
838	129
839	129
840	129
841	129
842	129
843	129
844	129
845	129
846	129
847	129
848	129
849	129
850	129
851	129
852	129
853	129
854	129
855	129
856	129
857	129
858	129
859	129
860	129
861	129
862	129
863	129
864	129
865	129
866	129
867	129
868	129
869	129
870	129
871	129
872	129
873	129
874	129
875	129
876	129
877	129
878	129
879	129
880	129
881	129
882	129
883	129
884	129
885	129
886	129
887	129
888	129
889	129
890	129
891	129
892	129
893	129
894	129
895	129
896	129
897	129
898	129
899	129
900	129
901	129
902	129
903	129
904	129
905	129
906	129
DEPOT_SECTION
1
EOF
